N = 6;
H = 5;
T = 2;

avail = array3d(1..N, 1..H, 1..T, [0, 8, 9, 10, 0, 0, 8, 2, 7, 8, 1, 7, 1, 6, 10, 0, 8, 8, 3, 2, 1, 5, 10, 6, 8, 8, 3, 1, 8, 1, 10, 10, 7, 8, 8, 2, 3, 3, 4, 7, 9, 4, 2, 7, 5, 9, 9, 1, 8, 10, 9, 10, 2, 8, 0, 9, 3, 3, 10, 6]);

r = array2d(1..H, 1..T, [0, 1, 0, 1, 0, 1, 2, 2, 0, 0]);
